\* row_knapsack_problem *\
Minimize
knapsack: 299 row_0 + 301 row_1 + 284 row_10 + 317 row_11 + 310 row_12
 + 308 row_13 + 293 row_14 + 288 row_15 + 289 row_16 + 295 row_17 + 288 row_18
 + 296 row_19 + 315 row_2 + 308 row_20 + 300 row_21 + 311 row_22 + 328 row_23
 + 294 row_24 + 293 row_25 + 307 row_26 + 307 row_27 + 268 row_28 + 291 row_29
 + 286 row_3 + 320 row_30 + 304 row_31 + 305 row_32 + 286 row_33 + 293 row_34
 + 304 row_35 + 283 row_36 + 290 row_37 + 322 row_38 + 310 row_39 + 297 row_4
 + 299 row_40 + 282 row_41 + 304 row_42 + 295 row_43 + 283 row_44 + 290 row_45
 + 304 row_46 + 319 row_47 + 291 row_48 + 301 row_49 + 293 row_5 + 311 row_50
 + 303 row_51 + 310 row_52 + 308 row_53 + 308 row_54 + 418 row_55 + 304 row_56
 + 427 row_57 + 290 row_58 + 321 row_59 + 291 row_6 + 292 row_60 + 271 row_61
 + 304 row_62 + 424 row_63 + 293 row_7 + 288 row_8 + 299 row_9
Subject To
sensitivity: 167 row_0 + 165 row_1 + 182 row_10 + 149 row_11 + 156 row_12
 + 158 row_13 + 173 row_14 + 178 row_15 + 177 row_16 + 171 row_17 + 178 row_18
 + 170 row_19 + 151 row_2 + 158 row_20 + 166 row_21 + 155 row_22 + 138 row_23
 + 172 row_24 + 173 row_25 + 159 row_26 + 159 row_27 + 198 row_28 + 175 row_29
 + 180 row_3 + 146 row_30 + 162 row_31 + 161 row_32 + 180 row_33 + 173 row_34
 + 162 row_35 + 183 row_36 + 176 row_37 + 144 row_38 + 156 row_39 + 169 row_4
 + 167 row_40 + 184 row_41 + 162 row_42 + 171 row_43 + 183 row_44 + 176 row_45
 + 162 row_46 + 147 row_47 + 175 row_48 + 165 row_49 + 173 row_5 + 155 row_50
 + 163 row_51 + 156 row_52 + 158 row_53 + 158 row_54 + 48 row_55 + 162 row_56
 + 39 row_57 + 176 row_58 + 145 row_59 + 175 row_6 + 174 row_60 + 195 row_61
 + 162 row_62 + 42 row_63 + 173 row_7 + 178 row_8 + 167 row_9 >= 9279.9
Binaries
row_0
row_1
row_10
row_11
row_12
row_13
row_14
row_15
row_16
row_17
row_18
row_19
row_2
row_20
row_21
row_22
row_23
row_24
row_25
row_26
row_27
row_28
row_29
row_3
row_30
row_31
row_32
row_33
row_34
row_35
row_36
row_37
row_38
row_39
row_4
row_40
row_41
row_42
row_43
row_44
row_45
row_46
row_47
row_48
row_49
row_5
row_50
row_51
row_52
row_53
row_54
row_55
row_56
row_57
row_58
row_59
row_6
row_60
row_61
row_62
row_63
row_7
row_8
row_9
End
